0 0 0 0
0 1 0 0
0 2 0 0
0 3 0 0
0 4 0 1
0 5 0 5
0 6 1 2
0 7 2 2
0 8 0 3
0 9 0 4
0 10 1 8
0 11 0 6
0 12 0 19
0 13 2 12
0 14 0 5
0 15 0 20
0 16 0 8
0 17 0 23
0 18 0 7
0 19 1 12
0 20 0 23
0 21 0 10
0 22 0 26
0 23 0 27
0 24 1 30
0 25 0 37
0 26 1 15
0 27 0 27
0 28 0 30
0 29 0 40
0 30 0 38
0 31 0 41
